networks/zoo_30_168/zoo_30_168.sol
<?xml version = "1.0" encoding="UTF-8" standalone="yes"?>
<CPLEXSolution version="1.2">
 <header
   problemName="networks/zoo_30_168/zoo_30_168.lp"
   solutionName="incumbent"
   solutionIndex="-1"
   objectiveValue="14"
   solutionTypeValue="3"
   solutionTypeString="primal"
   solutionStatusValue="101"
   solutionStatusString="integer optimal solution"
   solutionMethodString="mip"
   primalFeasible="1"
   dualFeasible="1"
   MIPNodes="0"
   MIPIterations="87"
   writeLevel="3"/>
 <quality
   epInt="1.0000000000000001e-05"
   epRHS="9.9999999999999995e-07"
   maxIntInfeas="0"
   maxPrimalInfeas="0"
   maxX="4"
   maxSlack="10"/>
 <variables>
  <variable name="Y(2,3)" index="31" value="1"/>
  <variable name="Y(7,9)" index="182" value="1"/>
  <variable name="Y(8,10)" index="212" value="1"/>
  <variable name="Y(9,11)" index="242" value="1"/>
  <variable name="Y(13,1)" index="348" value="1"/>
  <variable name="Y(16,6)" index="440" value="1"/>
  <variable name="Y(37,2)" index="1045" value="1"/>
  <variable name="Y(61,5)" index="1744" value="1"/>
  <variable name="Y(91,13)" index="2622" value="1"/>
  <variable name="Y(114,14)" index="3290" value="1"/>
  <variable name="Y(115,15)" index="3320" value="1"/>
  <variable name="Y(133,7)" index="3834" value="1"/>
  <variable name="Y(152,4)" index="4382" value="1"/>
  <variable name="Y(155,8)" index="4473" value="1"/>
  <variable name="X(1,4,2)" index="4873" value="1"/>
  <variable name="X(1,5,37)" index="5076" value="1"/>
  <variable name="X(1,16,13)" index="5220" value="1"/>
  <variable name="X(2,3,16)" index="5391" value="1"/>
  <variable name="X(2,5,61)" index="5604" value="1"/>
  <variable name="X(2,17,37)" index="5748" value="1"/>
  <variable name="X(3,2,61)" index="5940" value="1"/>
  <variable name="X(3,6,16)" index="6063" value="1"/>
  <variable name="X(3,18,2)" index="6217" value="1"/>
  <variable name="X(4,1,37)" index="6420" value="1"/>
  <variable name="X(4,6,2)" index="6553" value="1"/>
  <variable name="X(4,19,152)" index="6871" value="1"/>
  <variable name="X(5,1,13)" index="6900" value="1"/>
  <variable name="X(5,2,37)" index="7092" value="1"/>
  <variable name="X(5,20,61)" index="7284" value="1"/>
  <variable name="X(6,3,2)" index="7393" value="1"/>
  <variable name="X(6,4,152)" index="7711" value="1"/>
  <variable name="X(6,7,7)" index="7734" value="1"/>
  <variable name="X(6,15,115)" index="8010" value="1"/>
  <variable name="X(6,21,16)" index="8079" value="1"/>
  <variable name="X(7,6,115)" index="8346" value="1"/>
  <variable name="X(7,9,7)" index="8406" value="1"/>
  <variable name="X(7,22,133)" index="8700" value="1"/>
  <variable name="X(8,9,133)" index="8868" value="1"/>
  <variable name="X(8,10,8)" index="8911" value="1"/>
  <variable name="X(8,23,155)" index="9226" value="1"/>
  <variable name="X(9,7,133)" index="9372" value="1"/>
  <variable name="X(9,8,8)" index="9415" value="1"/>
  <variable name="X(9,24,7)" index="9582" value="1"/>
  <variable name="X(10,8,155)" index="9898" value="1"/>
  <variable name="X(10,11,91)" index="10002" value="1"/>
  <variable name="X(10,25,8)" index="10087" value="1"/>
  <variable name="X(11,10,155)" index="10402" value="1"/>
  <variable name="X(11,12,91)" index="10506" value="1"/>
  <variable name="X(11,26,9)" index="10592" value="1"/>
  <variable name="X(12,11,9)" index="10760" value="1"/>
  <variable name="X(12,13,91)" index="11010" value="1"/>
  <variable name="X(13,12,9)" index="11096" value="1"/>
  <variable name="X(13,14,114)" index="11369" value="1"/>
  <variable name="X(13,28,91)" index="11514" value="1"/>
  <variable name="X(14,13,9)" index="11600" value="1"/>
  <variable name="X(14,15,152)" index="11911" value="1"/>
  <variable name="X(14,29,114)" index="12041" value="1"/>
  <variable name="X(15,6,152)" index="12247" value="1"/>
  <variable name="X(15,14,9)" index="12272" value="1"/>
  <variable name="X(15,30,115)" index="12546" value="1"/>
  <variable name="C(2,4)" index="12604" value="1"/>
  <variable name="C(2,6)" index="12605" value="2"/>
  <variable name="C(2,3)" index="12606" value="3"/>
  <variable name="C(7,7)" index="12625" value="1"/>
  <variable name="C(7,9)" index="12626" value="2"/>
  <variable name="C(8,8)" index="12632" value="1"/>
  <variable name="C(8,10)" index="12633" value="2"/>
  <variable name="C(9,14)" index="12638" value="1"/>
  <variable name="C(9,13)" index="12639" value="2"/>
  <variable name="C(9,12)" index="12640" value="3"/>
  <variable name="C(9,11)" index="12641" value="4"/>
  <variable name="C(13,1)" index="12659" value="1"/>
  <variable name="C(16,2)" index="12666" value="2"/>
  <variable name="C(16,3)" index="12667" value="3"/>
  <variable name="C(16,6)" index="12668" value="4"/>
  <variable name="C(37,1)" index="12760" value="1"/>
  <variable name="C(37,5)" index="12761" value="2"/>
  <variable name="C(37,2)" index="12762" value="3"/>
  <variable name="C(61,2)" index="12861" value="1"/>
  <variable name="C(61,5)" index="12862" value="2"/>
  <variable name="C(91,11)" index="12972" value="1"/>
  <variable name="C(91,12)" index="12973" value="2"/>
  <variable name="C(91,13)" index="12974" value="3"/>
  <variable name="C(114,14)" index="13072" value="1"/>
  <variable name="C(115,6)" index="13077" value="1"/>
  <variable name="C(115,15)" index="13078" value="2"/>
  <variable name="C(133,9)" index="13176" value="1"/>
  <variable name="C(133,7)" index="13177" value="2"/>
  <variable name="C(152,14)" index="13255" value="1"/>
  <variable name="C(152,15)" index="13256" value="2"/>
  <variable name="C(152,6)" index="13257" value="3"/>
  <variable name="C(152,4)" index="13258" value="4"/>
  <variable name="C(155,10)" index="13270" value="1"/>
  <variable name="C(155,8)" index="13271" value="2"/>
 </variables>
</CPLEXSolution>
